
Welcome to IBM(R) ILOG(R) CPLEX(R) Interactive Optimizer 22.1.1.0
  with Simplex, Mixed Integer & Barrier Optimizers
5725-A06 5725-A29 5724-Y48 5724-Y49 5724-Y54 5724-Y55 5655-Y21
Copyright IBM Corp. 1988, 2022.  All Rights Reserved.

Type 'help' for a list of available commands.
Type 'help' followed by a command name for more
information on commands.

CPLEX> Selected objective sense:  MINIMIZE
Selected objective  name:  00000000
Selected RHS        name:  RHS1
Selected bound      name:  BOUND
Problem 'ee.mps' read.
Read time = 0.03 sec. (3.17 ticks)
CPLEX> New value for time limit in seconds: 7200
CPLEX> New value for parallel optimization mode: -1
CPLEX> New value for default parallel thread count: 40
CPLEX> New value for mixed integer optimality gap tolerance: 1e-13
CPLEX> Version identifier: 22.1.1.0 | 2022-11-28 | 9160aff4d
CPXPARAM_Threads                                 40
CPXPARAM_Parallel                                -1
CPXPARAM_TimeLimit                               7200
CPXPARAM_MIP_Tolerances_MIPGap                   1e-13
Found incumbent of value 0.000000 after 0.00 sec. (0.31 ticks)
Tried aggregator 2 times.
MIP Presolve eliminated 182 rows and 2745 columns.
MIP Presolve modified 6090 coefficients.
Aggregator did 713 substitutions.
Reduced MIP has 3636 rows, 7840 columns, and 28954 nonzeros.
Reduced MIP has 7840 binaries, 0 generals, 0 SOSs, and 0 indicators.
Presolve time = 0.07 sec. (69.15 ticks)
Probing time = 0.03 sec. (5.33 ticks)
Tried aggregator 1 time.
Detecting symmetries...
Reduced MIP has 3636 rows, 7840 columns, and 28954 nonzeros.
Reduced MIP has 7840 binaries, 0 generals, 0 SOSs, and 0 indicators.
Presolve time = 0.02 sec. (22.10 ticks)
Probing time = 0.02 sec. (5.12 ticks)
Clique table members: 18788.
MIP emphasis: balance optimality and feasibility.
MIP search method: dynamic search.
Parallel mode: opportunistic, using up to 40 threads.
Root relaxation solution time = 0.11 sec. (95.52 ticks)

        Nodes                                         Cuts/
   Node  Left     Objective  IInf  Best Integer    Best Bound    ItCnt     Gap

*     0+    0                            0.0000  -1.54000e+13              --- 
*     0+    0                      -5.79000e+12  -1.54000e+13           165.98%
      0     0  -1.53900e+13   129  -5.79000e+12  -1.53900e+13     1887  165.80%
*     0+    0                      -6.99000e+12  -1.53900e+13           120.17%
*     0+    0                      -1.53900e+13  -1.53900e+13             0.00%
      0     0  -1.53900e+13   171  -1.53900e+13     Cuts: 107     2350    0.00%
*     0+    0                      -1.53900e+13  -1.53900e+13             0.00%
      0     0  -1.53900e+13   216  -1.53900e+13      Cuts: 54     2911    0.00%
*     0+    0                      -1.53900e+13  -1.53900e+13             0.00%
*     0+    0                      -1.53900e+13  -1.53900e+13             0.00%
      0    30        cutoff        -1.53900e+13  -1.53900e+13     9539    0.00%
Elapsed time = 2.13 sec. (1103.29 ticks, tree = 0.02 MB, solutions = 21)
    103    83  -1.53900e+13    83  -1.53900e+13  -1.53900e+13    42253    0.00%
    350    87  -1.53900e+13    81  -1.53900e+13  -1.53900e+13    53438    0.00%
    874   133        cutoff        -1.53900e+13  -1.53900e+13    75499    0.00%
   1389   318  -1.53900e+13    60  -1.53900e+13  -1.53900e+13   146067    0.00%
   1788   249  -1.53900e+13   211  -1.53900e+13  -1.53900e+13   117264    0.00%
   2190   332        cutoff        -1.53900e+13  -1.53900e+13   149129    0.00%
   2657   427        cutoff        -1.53900e+13  -1.53900e+13   286230    0.00%
   3047   400        cutoff        -1.53900e+13  -1.53900e+13   337522    0.00%
   3516   467        cutoff        -1.53900e+13  -1.53900e+13   272194    0.00%
   5022   468  -1.53900e+13    50  -1.53900e+13  -1.53900e+13   553443    0.00%
Elapsed time = 8.89 sec. (4207.89 ticks, tree = 3.72 MB, solutions = 34)
   8390   461  -1.53900e+13    90  -1.53900e+13  -1.53900e+13   557491    0.00%
  12479   537  -1.53900e+13   153  -1.53900e+13  -1.53900e+13   659795    0.00%
  15234  1111        cutoff        -1.53900e+13  -1.53900e+13   780037    0.00%
  16140  1749        cutoff        -1.53900e+13  -1.53900e+13   918527    0.00%

Performing restart 1

Repeating presolve.
Tried aggregator 2 times.
MIP Presolve eliminated 28 rows and 18 columns.
MIP Presolve modified 1865 coefficients.
Aggregator did 4 substitutions.
Reduced MIP has 3528 rows, 7818 columns, and 28286 nonzeros.
Reduced MIP has 7818 binaries, 0 generals, 0 SOSs, and 0 indicators.
Presolve time = 0.03 sec. (28.67 ticks)
Tried aggregator 2 times.
MIP Presolve eliminated 11 rows and 40 columns.
MIP Presolve modified 28 coefficients.
Aggregator did 16 substitutions.
Reduced MIP has 3501 rows, 7756 columns, and 28060 nonzeros.
Reduced MIP has 7756 binaries, 0 generals, 0 SOSs, and 0 indicators.
Presolve time = 0.05 sec. (54.31 ticks)
Represolve time = 0.22 sec. (147.31 ticks)
  16235     0  -1.53900e+13   317  -1.53900e+13      Cuts: 45  1208512    0.00%
  16235     0  -1.53900e+13   355  -1.53900e+13      Cuts: 48  1209104    0.00%
  16235     0  -1.53900e+13   282  -1.53900e+13      Cuts: 67  1209974    0.00%
  16235     0  -1.53900e+13   528  -1.53900e+13      Cuts: 72  1210926    0.00%
  16235     0  -1.53900e+13   470  -1.53900e+13      Cuts: 73  1211626    0.00%
  16235     0  -1.53900e+13   451  -1.53900e+13      Cuts: 48  1212347    0.00%
  16235     0  -1.53900e+13   437  -1.53900e+13      Cuts: 40  1212880    0.00%
  16235     0  -1.53900e+13   410  -1.53900e+13      Cuts: 56  1213182    0.00%
  16235     0  -1.53900e+13   446  -1.53900e+13      Cuts: 47  1213659    0.00%
  16235     0  -1.53900e+13   465  -1.53900e+13      Cuts: 65  1214057    0.00%
  16235     0  -1.53900e+13   516  -1.53900e+13      Cuts: 29  1214396    0.00%
  16235    27        cutoff        -1.53900e+13  -1.53900e+13  1232725    0.00%
  16549    18  -1.53900e+13   233  -1.53900e+13  -1.53900e+13  1299906    0.00%
  16783    20  -1.53900e+13   233  -1.53900e+13  -1.53900e+13  1296241    0.00%
  16922    27  -1.53900e+13   191  -1.53900e+13  -1.53900e+13  1298859    0.00%

GUB cover cuts applied:  13
Clique cuts applied:  6
Cover cuts applied:  373
Mixed integer rounding cuts applied:  38
Zero-half cuts applied:  65
Lift and project cuts applied:  10
Gomory fractional cuts applied:  44

Root node processing (before b&c):
  Real time             =    1.25 sec. (1095.00 ticks)
Parallel b&c, 40 threads:
  Real time             =   28.02 sec. (17564.37 ticks)
  Sync time (average)   =    6.90 sec.
  Wait time (average)   =    0.15 sec.
                          ------------
Total (root+branch&cut) =   29.27 sec. (18659.37 ticks)

Solution pool: 34 solutions saved.

MIP - Integer optimal solution:  Objective = -1.5389998189e+13
Solution time =   29.41 sec.  Iterations = 1333443  Nodes = 16970
Deterministic time = 18659.41 ticks  (634.56 ticks/sec)

CPLEX> Solution 'p35' written to file 'ee.sol'.
CPLEX> 